
Gurobi 10.0.1 (linux64) logging started Sun Nov 26 15:51:03 2023

Set parameter LogFile to value "ArtificialInstance/ExperimentV2/S4T3K2/AdRo/gurobiSpRo33.txt"
Gurobi Optimizer version 10.0.1 build v10.0.1rc0 (linux64)

CPU model: AMD EPYC 7H12 64-Core Processor, instruction set [SSE2|AVX|AVX2]
Thread count: 128 physical cores, 128 logical processors, using up to 32 threads

Academic license 656792 - for non-commercial use only - registered to b.___@student.vu.nl
Optimize a model with 8584 rows, 8416 columns and 32559 nonzeros
Model fingerprint: 0xd7c7e2ac
Variable types: 1 continuous, 8415 integer (8415 binary)
Coefficient statistics:
  Matrix range     [1e+00, 4e+01]
  Objective range  [1e+00, 2e+01]
  Bounds range     [1e+00, 1e+00]
  RHS range        [1e+00, 1e+00]
Presolve removed 3015 rows and 2783 columns
Presolve time: 0.10s
Presolved: 5569 rows, 5633 columns, 21775 nonzeros
Variable types: 1 continuous, 5632 integer (5632 binary)
Found heuristic solution: objective 73.3512051

Root relaxation: objective 6.223889e+01, 1059 iterations, 0.03 seconds (0.02 work units)

    Nodes    |    Current Node    |     Objective Bounds      |     Work
 Expl Unexpl |  Obj  Depth IntInf | Incumbent    BestBd   Gap | It/Node Time

H    0     0                      62.2388902   44.96138  27.8%     -    0s
     0     0          -    0        62.23889   62.23889  0.00%     -    0s

Explored 1 nodes (1580 simplex iterations) in 0.19 seconds (0.13 work units)
Thread count was 32 (of 128 available processors)

Solution count 2: 62.2389 73.3512 

Optimal solution found (tolerance 1.00e-04)
Best objective 6.223889015280e+01, best bound 6.223889015280e+01, gap 0.0000%
